(set-option :produce-models true); benchmark generated from python API
(set-info :status unknown)
(declare-fun l_0_0_9 () Real)
(declare-fun l_0_0_8 () Real)
(declare-fun l_0_0_3 () Real)
(declare-fun l_0_0_2 () Real)
(declare-fun _a_0_ () Real)
(declare-fun l_0_0_7 () Real)
(declare-fun l_0_0_1 () Real)
(declare-fun _a_1_ () Real)
(declare-fun l_0_0_6 () Real)
(declare-fun l_0_0_5 () Real)
(declare-fun l_0_0_4 () Real)
(declare-fun l_0_0_12 () Real)
(declare-fun l_0_0_11 () Real)
(declare-fun l_0_0_10 () Real)
(declare-fun l_0_1_9 () Real)
(declare-fun l_0_1_8 () Real)
(declare-fun l_0_1_15 () Real)
(declare-fun l_0_1_14 () Real)
(declare-fun l_0_1_3 () Real)
(declare-fun l_0_1_2 () Real)
(declare-fun l_0_1_7 () Real)
(declare-fun l_0_1_13 () Real)
(declare-fun l_0_1_1 () Real)
(declare-fun l_0_1_16 () Real)
(declare-fun l_0_1_11 () Real)
(declare-fun l_0_1_10 () Real)
(declare-fun l_0_1_5 () Real)
(declare-fun l_0_1_4 () Real)
(declare-fun l_0_1_17 () Real)
(declare-fun l_0_1_18 () Real)
(declare-fun l_0_1_12 () Real)
(declare-fun l_0_1_6 () Real)
(declare-fun l_0_2_9 () Real)
(declare-fun l_0_2_8 () Real)
(declare-fun l_0_2_15 () Real)
(declare-fun l_0_2_14 () Real)
(declare-fun l_0_2_3 () Real)
(declare-fun l_0_2_2 () Real)
(declare-fun l_0_2_7 () Real)
(declare-fun l_0_2_13 () Real)
(declare-fun l_0_2_1 () Real)
(declare-fun l_0_2_16 () Real)
(declare-fun l_0_2_11 () Real)
(declare-fun l_0_2_10 () Real)
(declare-fun l_0_2_5 () Real)
(declare-fun l_0_2_4 () Real)
(declare-fun l_0_2_18 () Real)
(declare-fun l_0_2_17 () Real)
(declare-fun l_0_2_12 () Real)
(declare-fun l_0_2_6 () Real)
(assert
 (let ((?x64 (* l_0_0_9 l_0_0_9)))
 (let ((?x62 (* l_0_0_8 l_0_0_8)))
 (let ((?x59 (* l_0_0_3 l_0_0_3)))
 (let ((?x60 (* 3.0 ?x59)))
 (let ((?x65 (- (- (+ (+ _a_0_ (* 3.0 (* l_0_0_2 l_0_0_2))) ?x60) ?x62) ?x64)))
 (= ?x65 0.0)))))))
(assert
 (let ((?x102 (- (+ _a_1_ (* (* 6.0 l_0_0_1) l_0_0_2)) (* (* 4.0 l_0_0_2) l_0_0_2))))
 (let ((?x109 (- (- ?x102 (* (* 4.0 l_0_0_3) l_0_0_3)) (* (* 2.0 l_0_0_7) l_0_0_8))))
 (= ?x109 0.0))))
(assert
 (let ((?x147 (* l_0_0_6 l_0_0_6)))
 (let ((?x148 (* 3.0 ?x147)))
 (let ((?x144 (* l_0_0_5 l_0_0_5)))
 (let ((?x145 (* 3.0 ?x144)))
 (let ((?x141 (* l_0_0_4 l_0_0_4)))
 (let ((?x142 (* 3.0 ?x141)))
 (let ((?x59 (* l_0_0_3 l_0_0_3)))
 (let ((?x55 (* l_0_0_2 l_0_0_2)))
 (let ((?x137 (* l_0_0_12 l_0_0_12)))
 (let ((?x139 (+ (- (- (* (- l_0_0_10) l_0_0_10) (* l_0_0_11 l_0_0_11)) ?x137) ?x55)))
 (= (- (+ (+ (+ (+ ?x139 ?x59) ?x142) ?x145) ?x148) 1.0) 0.0))))))))))))
(assert
 (let ((?x175 (* l_0_0_7 l_0_0_7)))
 (let ((?x59 (* l_0_0_3 l_0_0_3)))
 (let ((?x55 (* l_0_0_2 l_0_0_2)))
 (let ((?x170 (* l_0_0_1 l_0_0_1)))
 (let ((?x171 (* 3.0 ?x170)))
 (let ((?x176 (- (+ (+ (+ (* (* (- 8.0) l_0_0_1) l_0_0_2) ?x171) ?x55) ?x59) ?x175)))
 (= (- ?x176 1.0) 0.0))))))))
(assert
 (let ((?x190 (- (* (* 6.0 l_0_0_1) l_0_0_4) (* (* 2.0 l_0_0_10) l_0_0_7))))
 (let ((?x197 (- (- ?x190 (* (* 8.0 l_0_0_2) l_0_0_4)) (* (* 8.0 l_0_0_3) l_0_0_5))))
 (= ?x197 0.0))))
(assert
 (let ((?x224 (- (* (* (- 2.0) l_0_0_10) l_0_0_8) (* (* 2.0 l_0_0_11) l_0_0_9))))
 (let ((?x230 (+ (+ ?x224 (* (* 6.0 l_0_0_2) l_0_0_4)) (* (* 6.0 l_0_0_3) l_0_0_5))))
 (= ?x230 0.0))))
(assert
 (let ((?x147 (* l_0_0_6 l_0_0_6)))
 (let ((?x144 (* l_0_0_5 l_0_0_5)))
 (= (+ (+ (+ (* l_0_0_1 l_0_0_1) (* l_0_0_4 l_0_0_4)) ?x144) ?x147) 0.0))))
(assert
 (let ((?x250 (* 2.0 l_0_0_1)))
 (let ((?x251 (* ?x250 l_0_0_2)))
 (let ((?x257 (- (- ?x251 (* (* 4.0 l_0_0_4) l_0_0_4)) (* (* 4.0 l_0_0_5) l_0_0_5))))
 (= (- ?x257 (* (* 4.0 l_0_0_6) l_0_0_6)) 0.0)))))
(assert
 (= (* (* 2.0 l_0_0_1) l_0_0_4) 0.0))
(assert
 (let ((?x285 (* (* 2.0 l_0_0_3) l_0_0_5)))
 (let ((?x283 (* (* 2.0 l_0_0_2) l_0_0_4)))
 (= (+ ?x283 ?x285) 0.0))))
(assert
 (let ((?x147 (* l_0_0_6 l_0_0_6)))
 (= (+ (+ (* l_0_0_4 l_0_0_4) (* l_0_0_5 l_0_0_5)) ?x147) 0.0)))
(assert
 (let ((?x170 (* l_0_0_1 l_0_0_1)))
 (= ?x170 0.0)))
(assert
 (let ((?x250 (* 2.0 l_0_0_1)))
 (let ((?x251 (* ?x250 l_0_0_2)))
 (= (- ?x251 (* (* 4.0 l_0_0_1) l_0_0_1)) 0.0))))
(assert
 (= (* (* 2.0 l_0_0_1) l_0_0_4) 0.0))
(assert
 (let ((?x285 (* (* 2.0 l_0_0_3) l_0_0_5)))
 (let ((?x283 (* (* 2.0 l_0_0_2) l_0_0_4)))
 (= (+ (+ (* (* (- 8.0) l_0_0_1) l_0_0_4) ?x283) ?x285) 0.0))))
(assert
 (>= l_0_0_1 0.0))
(assert
 (>= l_0_0_3 0.0))
(assert
 (>= l_0_0_6 0.0))
(assert
 (>= l_0_0_7 0.0))
(assert
 (>= l_0_0_9 0.0))
(assert
 (>= l_0_0_12 0.0))
(assert
 (let ((?x330 (* l_0_1_15 l_0_1_15)))
 (let ((?x328 (* l_0_1_14 l_0_1_14)))
 (let ((?x329 (- (* (- _a_0_) (+ (* l_0_1_2 l_0_1_2) (* l_0_1_3 l_0_1_3))) ?x328)))
 (let ((?x337 (- (- (- ?x329 ?x330) (* (* 1.0 l_0_1_8) l_0_1_8)) (* (* 1.0 l_0_1_9) l_0_1_9))))
 (= (+ ?x337 2.0) 0.0))))))
(assert
 (let ((?x356 (* l_0_1_9 l_0_1_9)))
 (let ((?x352 (* l_0_1_8 l_0_1_8)))
 (let ((?x325 (* l_0_1_3 l_0_1_3)))
 (let ((?x324 (* l_0_1_2 l_0_1_2)))
 (let ((?x368 (* l_0_1_13 l_0_1_13)))
 (let ((?x367 (- (* (* (- _a_0_) l_0_1_1) l_0_1_1) (* (* (* 2.0 _a_1_) l_0_1_1) l_0_1_2))))
 (let ((?x374 (+ (+ (+ (- ?x367 ?x368) ?x324) ?x325) (* (* 8.0 l_0_1_7) l_0_1_8))))
 (let ((?x381 (- (- (- (- ?x374 (* (* 1.0 l_0_1_7) l_0_1_7)) ?x352) ?x356) (/ 1.0 5.0))))
 (= ?x381 0.0))))))))))
(assert
 (let ((?x356 (* l_0_1_9 l_0_1_9)))
 (let ((?x423 (* 4.0 ?x356)))
 (let ((?x352 (* l_0_1_8 l_0_1_8)))
 (let ((?x421 (* 4.0 ?x352)))
 (let ((?x419 (* (* 2.0 l_0_1_7) l_0_1_8)))
 (let ((?x414 (- (* (* (* (- 2.0) _a_0_) l_0_1_1) l_0_1_2) (* _a_1_ (+ (* l_0_1_2 l_0_1_2) (* l_0_1_3 l_0_1_3))))))
 (let ((?x424 (+ (+ (- (- ?x414 (* (* 2.0 l_0_1_13) l_0_1_14)) ?x419) ?x421) ?x423)))
 (= (- ?x424 1.0) 0.0)))))))))
(assert
 (let ((?x464 (* 2.0 l_0_1_10)))
 (let ((?x465 (* ?x464 l_0_1_7)))
 (let ((?x460 (* (* 2.0 l_0_1_3) l_0_1_5)))
 (let ((?x458 (* (* 2.0 l_0_1_2) l_0_1_4)))
 (let ((?x461 (+ ?x458 ?x460)))
 (let ((?x466 (- (- (* (* (* (- 2.0) _a_0_) l_0_1_1) l_0_1_4) (* _a_1_ ?x461)) ?x465)))
 (let ((?x472 (+ (+ ?x466 (* (* 8.0 l_0_1_10) l_0_1_8)) (* (* 8.0 l_0_1_11) l_0_1_9))))
 (= (- ?x472 (* (* 2.0 l_0_1_13) l_0_1_16)) 0.0)))))))))
(assert
 (let ((?x527 (* (* 2.0 l_0_1_11) l_0_1_9)))
 (let ((?x464 (* 2.0 l_0_1_10)))
 (let ((?x524 (* ?x464 l_0_1_8)))
 (let ((?x460 (* (* 2.0 l_0_1_3) l_0_1_5)))
 (let ((?x458 (* (* 2.0 l_0_1_2) l_0_1_4)))
 (let ((?x461 (+ ?x458 ?x460)))
 (let ((?x323 (- _a_0_)))
 (let ((?x531 (- (- (- (* ?x323 ?x461) ?x524) ?x527) (* (* 2.0 l_0_1_14) l_0_1_16))))
 (= (- ?x531 (* (* 2.0 l_0_1_15) l_0_1_17)) 0.0))))))))))
(assert
 (let ((?x356 (* l_0_1_9 l_0_1_9)))
 (let ((?x352 (* l_0_1_8 l_0_1_8)))
 (let ((?x325 (* l_0_1_3 l_0_1_3)))
 (let ((?x324 (* l_0_1_2 l_0_1_2)))
 (let ((?x585 (* l_0_1_18 l_0_1_18)))
 (let ((?x583 (* l_0_1_17 l_0_1_17)))
 (let ((?x581 (* l_0_1_16 l_0_1_16)))
 (let ((?x569 (* l_0_1_6 l_0_1_6)))
 (let ((?x570 (+ (+ (* l_0_1_4 l_0_1_4) (* l_0_1_5 l_0_1_5)) ?x569)))
 (let ((?x323 (- _a_0_)))
 (let ((?x577 (- (- (* ?x323 ?x570) (* (* 1.0 l_0_1_10) l_0_1_10)) (* (* 1.0 l_0_1_11) l_0_1_11))))
 (let ((?x586 (- (- (- (- ?x577 (* (* 1.0 l_0_1_12) l_0_1_12)) ?x581) ?x583) ?x585)))
 (= (- (- (+ (+ ?x586 ?x324) ?x325) ?x352) ?x356) 0.0))))))))))))))
(assert
 (let ((?x419 (* (* 2.0 l_0_1_7) l_0_1_8)))
 (let ((?x629 (* 2.0 l_0_1_1)))
 (let ((?x630 (* ?x629 l_0_1_2)))
 (let ((?x634 (+ (- (+ (* (* (- _a_1_) l_0_1_1) l_0_1_1) ?x630) ?x419) (* 4.0 (* l_0_1_7 l_0_1_7)))))
 (= ?x634 0.0))))))
(assert
 (let ((?x460 (* (* 2.0 l_0_1_3) l_0_1_5)))
 (let ((?x458 (* (* 2.0 l_0_1_2) l_0_1_4)))
 (let ((?x527 (* (* 2.0 l_0_1_11) l_0_1_9)))
 (let ((?x464 (* 2.0 l_0_1_10)))
 (let ((?x524 (* ?x464 l_0_1_8)))
 (let ((?x652 (+ (* (* (* (- 2.0) _a_1_) l_0_1_1) l_0_1_4) (* (* 8.0 l_0_1_10) l_0_1_7))))
 (= (+ (+ (- (- ?x652 ?x524) ?x527) ?x458) ?x460) 0.0))))))))
(assert
 (let ((?x419 (* (* 2.0 l_0_1_7) l_0_1_8)))
 (let ((?x607 (* l_0_1_12 l_0_1_12)))
 (let ((?x674 (* 4.0 ?x607)))
 (let ((?x603 (* l_0_1_11 l_0_1_11)))
 (let ((?x672 (* 4.0 ?x603)))
 (let ((?x592 (* l_0_1_10 l_0_1_10)))
 (let ((?x670 (* 4.0 ?x592)))
 (let ((?x629 (* 2.0 l_0_1_1)))
 (let ((?x630 (* ?x629 l_0_1_2)))
 (let ((?x569 (* l_0_1_6 l_0_1_6)))
 (let ((?x570 (+ (+ (* l_0_1_4 l_0_1_4) (* l_0_1_5 l_0_1_5)) ?x569)))
 (let ((?x626 (- _a_1_)))
 (= (- (+ (+ (+ (+ (* ?x626 ?x570) ?x630) ?x670) ?x672) ?x674) ?x419) 0.0))))))))))))))
(assert
 (let ((?x397 (* l_0_1_7 l_0_1_7)))
 (let ((?x569 (* l_0_1_6 l_0_1_6)))
 (let ((?x567 (* l_0_1_5 l_0_1_5)))
 (let ((?x566 (* l_0_1_4 l_0_1_4)))
 (let ((?x607 (* l_0_1_12 l_0_1_12)))
 (let ((?x603 (* l_0_1_11 l_0_1_11)))
 (let ((?x697 (- (- (- (* l_0_1_1 l_0_1_1) (* l_0_1_10 l_0_1_10)) ?x603) ?x607)))
 (= (- (+ (+ (+ ?x697 ?x566) ?x567) ?x569) ?x397) 0.0)))))))))
(assert
 (let ((?x464 (* 2.0 l_0_1_10)))
 (let ((?x465 (* ?x464 l_0_1_7)))
 (= (- (* (* 2.0 l_0_1_1) l_0_1_4) ?x465) 0.0))))
(assert
 (let ((?x460 (* (* 2.0 l_0_1_3) l_0_1_5)))
 (let ((?x458 (* (* 2.0 l_0_1_2) l_0_1_4)))
 (let ((?x527 (* (* 2.0 l_0_1_11) l_0_1_9)))
 (= (+ (+ (- (* (* (- 2.0) l_0_1_10) l_0_1_8) ?x527) ?x458) ?x460) 0.0)))))
(assert
 (let ((?x569 (* l_0_1_6 l_0_1_6)))
 (let ((?x567 (* l_0_1_5 l_0_1_5)))
 (let ((?x566 (* l_0_1_4 l_0_1_4)))
 (let ((?x607 (* l_0_1_12 l_0_1_12)))
 (let ((?x742 (+ (- (- (* (- l_0_1_10) l_0_1_10) (* l_0_1_11 l_0_1_11)) ?x607) ?x566)))
 (= (+ (+ ?x742 ?x567) ?x569) 0.0)))))))
(assert
 (= (- (* l_0_1_1 l_0_1_1) (* l_0_1_7 l_0_1_7)) 0.0))
(assert
 (let ((?x464 (* 2.0 l_0_1_10)))
 (let ((?x465 (* ?x464 l_0_1_7)))
 (= (- (* (* 2.0 l_0_1_1) l_0_1_4) ?x465) 0.0))))
(assert
 (>= l_0_1_1 0.0))
(assert
 (>= l_0_1_3 0.0))
(assert
 (>= l_0_1_6 0.0))
(assert
 (>= l_0_1_7 0.0))
(assert
 (>= l_0_1_9 0.0))
(assert
 (>= l_0_1_12 0.0))
(assert
 (>= l_0_1_13 0.0))
(assert
 (>= l_0_1_15 0.0))
(assert
 (>= l_0_1_18 0.0))
(assert
 (let ((?x774 (* l_0_2_15 l_0_2_15)))
 (let ((?x772 (* l_0_2_14 l_0_2_14)))
 (let ((?x771 (+ (* (- _a_0_) (+ (* l_0_2_2 l_0_2_2) (* l_0_2_3 l_0_2_3))) _a_0_)))
 (let ((?x781 (+ (+ (- (- ?x771 ?x772) ?x774) (* 1.0 (* l_0_2_8 l_0_2_8))) (* 1.0 (* l_0_2_9 l_0_2_9)))))
 (= ?x781 0.0))))))
(assert
 (let ((?x808 (* (* 2.0 l_0_2_7) l_0_2_8)))
 (let ((?x802 (* (/ 9.0 10.0) _a_1_)))
 (let ((?x800 (- (* (* (* (- 2.0) _a_0_) l_0_2_1) l_0_2_2) (* _a_1_ (+ (* l_0_2_2 l_0_2_2) (* l_0_2_3 l_0_2_3))))))
 (let ((?x812 (- (+ (- (+ ?x800 ?x802) (* (* 2.0 l_0_2_13) l_0_2_14)) ?x808) (* (* 4.0 l_0_2_8) l_0_2_8))))
 (= (- ?x812 (* (* 4.0 l_0_2_9) l_0_2_9)) 0.0))))))
(assert
 (let ((?x863 (* 2.0 l_0_2_10)))
 (let ((?x864 (* ?x863 l_0_2_7)))
 (let ((?x861 (* (/ 1.0 10.0) _a_1_)))
 (let ((?x856 (* (* 2.0 l_0_2_3) l_0_2_5)))
 (let ((?x854 (* (* 2.0 l_0_2_2) l_0_2_4)))
 (let ((?x857 (+ ?x854 ?x856)))
 (let ((?x862 (- (- (* (* (* (- 2.0) _a_0_) l_0_2_1) l_0_2_4) (* _a_1_ ?x857)) ?x861)))
 (let ((?x871 (- (- (+ ?x862 ?x864) (* (* 8.0 l_0_2_10) l_0_2_8)) (* (* 8.0 l_0_2_11) l_0_2_9))))
 (= (- ?x871 (* (* 2.0 l_0_2_13) l_0_2_16)) 0.0))))))))))
(assert
 (let ((?x779 (* l_0_2_9 l_0_2_9)))
 (let ((?x776 (* l_0_2_8 l_0_2_8)))
 (let ((?x768 (* l_0_2_3 l_0_2_3)))
 (let ((?x767 (* l_0_2_2 l_0_2_2)))
 (let ((?x949 (* l_0_2_18 l_0_2_18)))
 (let ((?x947 (* l_0_2_17 l_0_2_17)))
 (let ((?x945 (* l_0_2_16 l_0_2_16)))
 (let ((?x933 (* l_0_2_6 l_0_2_6)))
 (let ((?x934 (+ (+ (* l_0_2_4 l_0_2_4) (* l_0_2_5 l_0_2_5)) ?x933)))
 (let ((?x323 (- _a_0_)))
 (let ((?x941 (+ (+ (* ?x323 ?x934) (* 1.0 (* l_0_2_10 l_0_2_10))) (* 1.0 (* l_0_2_11 l_0_2_11)))))
 (let ((?x950 (- (- (- (+ ?x941 (* 1.0 (* l_0_2_12 l_0_2_12))) ?x945) ?x947) ?x949)))
 (= (- (+ (+ (+ (+ ?x950 ?x767) ?x768) ?x776) ?x779) (/ 81.0 100.0)) 0.0))))))))))))))
(assert
 (let ((?x779 (* l_0_2_9 l_0_2_9)))
 (let ((?x776 (* l_0_2_8 l_0_2_8)))
 (let ((?x768 (* l_0_2_3 l_0_2_3)))
 (let ((?x767 (* l_0_2_2 l_0_2_2)))
 (let ((?x986 (* l_0_2_13 l_0_2_13)))
 (let ((?x985 (- (* (* (- _a_0_) l_0_2_1) l_0_2_1) (* (* (* 2.0 _a_1_) l_0_2_1) l_0_2_2))))
 (let ((?x992 (- (+ (+ (- ?x985 ?x986) ?x767) ?x768) (* (* 8.0 l_0_2_7) l_0_2_8))))
 (let ((?x998 (- (+ (+ (+ ?x992 (* 1.0 (* l_0_2_7 l_0_2_7))) ?x776) ?x779) (/ 81.0 100.0))))
 (= ?x998 0.0))))))))))
(assert
 (let ((?x856 (* (* 2.0 l_0_2_3) l_0_2_5)))
 (let ((?x854 (* (* 2.0 l_0_2_2) l_0_2_4)))
 (let ((?x1028 (* (* 2.0 l_0_2_11) l_0_2_9)))
 (let ((?x863 (* 2.0 l_0_2_10)))
 (let ((?x1025 (* ?x863 l_0_2_8)))
 (let ((?x1024 (- (* (* (* (- 2.0) _a_1_) l_0_2_1) l_0_2_4) (* (* 8.0 l_0_2_10) l_0_2_7))))
 (= (+ (+ (+ (+ (+ ?x1024 ?x1025) ?x1028) ?x854) ?x856) (/ 9.0 50.0)) 0.0))))))))
(assert
 (let ((?x993 (* l_0_2_7 l_0_2_7)))
 (let ((?x933 (* l_0_2_6 l_0_2_6)))
 (let ((?x931 (* l_0_2_5 l_0_2_5)))
 (let ((?x930 (* l_0_2_4 l_0_2_4)))
 (let ((?x942 (* l_0_2_12 l_0_2_12)))
 (let ((?x939 (* l_0_2_11 l_0_2_11)))
 (let ((?x1050 (+ (+ (+ (* l_0_2_1 l_0_2_1) (* l_0_2_10 l_0_2_10)) ?x939) ?x942)))
 (= (- (+ (+ (+ (+ ?x1050 ?x930) ?x931) ?x933) ?x993) (/ 1.0 100.0)) 0.0)))))))))
(assert
 (let ((?x1028 (* (* 2.0 l_0_2_11) l_0_2_9)))
 (let ((?x863 (* 2.0 l_0_2_10)))
 (let ((?x1025 (* ?x863 l_0_2_8)))
 (let ((?x856 (* (* 2.0 l_0_2_3) l_0_2_5)))
 (let ((?x854 (* (* 2.0 l_0_2_2) l_0_2_4)))
 (let ((?x857 (+ ?x854 ?x856)))
 (let ((?x323 (- _a_0_)))
 (let ((?x1069 (- (+ (+ (* ?x323 ?x857) ?x1025) ?x1028) (* (* 2.0 l_0_2_14) l_0_2_16))))
 (= (- ?x1069 (* (* 2.0 l_0_2_15) l_0_2_17)) 0.0))))))))))
(assert
 (let ((?x808 (* (* 2.0 l_0_2_7) l_0_2_8)))
 (let ((?x1096 (* 2.0 l_0_2_1)))
 (let ((?x1097 (* ?x1096 l_0_2_2)))
 (let ((?x1102 (- (+ (+ (* (* (- _a_1_) l_0_2_1) l_0_2_1) ?x1097) ?x808) (* (* 4.0 l_0_2_7) l_0_2_7))))
 (= ?x1102 0.0))))))
(assert
 (let ((?x808 (* (* 2.0 l_0_2_7) l_0_2_8)))
 (let ((?x1096 (* 2.0 l_0_2_1)))
 (let ((?x1097 (* ?x1096 l_0_2_2)))
 (let ((?x933 (* l_0_2_6 l_0_2_6)))
 (let ((?x934 (+ (+ (* l_0_2_4 l_0_2_4) (* l_0_2_5 l_0_2_5)) ?x933)))
 (let ((?x626 (- _a_1_)))
 (let ((?x1122 (- (- (+ (* ?x626 ?x934) ?x1097) (* (* 4.0 l_0_2_10) l_0_2_10)) (* (* 4.0 l_0_2_11) l_0_2_11))))
 (= (+ (- ?x1122 (* (* 4.0 l_0_2_12) l_0_2_12)) ?x808) 0.0)))))))))
(assert
 (let ((?x863 (* 2.0 l_0_2_10)))
 (let ((?x864 (* ?x863 l_0_2_7)))
 (= (+ (* (* 2.0 l_0_2_1) l_0_2_4) ?x864) 0.0))))
(assert
 (let ((?x856 (* (* 2.0 l_0_2_3) l_0_2_5)))
 (let ((?x854 (* (* 2.0 l_0_2_2) l_0_2_4)))
 (let ((?x1028 (* (* 2.0 l_0_2_11) l_0_2_9)))
 (let ((?x863 (* 2.0 l_0_2_10)))
 (let ((?x1025 (* ?x863 l_0_2_8)))
 (= (+ (+ (+ ?x1025 ?x1028) ?x854) ?x856) 0.0)))))))
(assert
 (let ((?x933 (* l_0_2_6 l_0_2_6)))
 (let ((?x931 (* l_0_2_5 l_0_2_5)))
 (let ((?x930 (* l_0_2_4 l_0_2_4)))
 (let ((?x942 (* l_0_2_12 l_0_2_12)))
 (let ((?x1169 (+ (+ (+ (* l_0_2_10 l_0_2_10) (* l_0_2_11 l_0_2_11)) ?x942) ?x930)))
 (= (+ (+ ?x1169 ?x931) ?x933) 0.0)))))))
(assert
 (= (+ (* l_0_2_1 l_0_2_1) (* l_0_2_7 l_0_2_7)) 0.0))
(assert
 (let ((?x863 (* 2.0 l_0_2_10)))
 (let ((?x864 (* ?x863 l_0_2_7)))
 (= (+ (* (* 2.0 l_0_2_1) l_0_2_4) ?x864) 0.0))))
(assert
 (>= l_0_2_1 0.0))
(assert
 (>= l_0_2_3 0.0))
(assert
 (>= l_0_2_6 0.0))
(assert
 (>= l_0_2_7 0.0))
(assert
 (>= l_0_2_9 0.0))
(assert
 (>= l_0_2_12 0.0))
(assert
 (>= l_0_2_13 0.0))
(assert
 (>= l_0_2_15 0.0))
(assert
 (>= l_0_2_18 0.0))
(check-sat)
(get-model)